SystemName	Si8
SystemLabel	Si8

DM.MixingWeight	1e-06
MaxSCFIterations	100
SCFMustConverge	True

Spin	non-polarized
XC.functional	GGA
XC.authors	PBE

MeshCutoff	300	eV
PAO.EnergyShift	0.1	eV

NumberOfSpecies	1
NumberOfAtoms	8
%block ChemicalSpecieslabel
    1 14 Si.1 Si.1.psml
%endblock ChemicalSpecieslabel

%block PAO.BasisSizes
    Si.1	DZP
%endblock PAO.BasisSizes


LatticeConstant	1.0 Ang
%block LatticeVectors
    5.44370237 0.0 0.0
    0.0 5.44370237 0.0
    0.0 0.0 5.44370237
%endblock LatticeVectors
AtomicCoordinatesFormat	Ang
%block AtomicCoordinatesAndAtomicSpecies
    0.0 0.0 0.0 1
    1.3609255925 1.3609255925 1.3609255925 1
    0.0 2.721851185 2.721851185 1
    4.0827767774999995 1.3609255925 4.0827767774999995 1
    1.3609255925 4.0827767774999995 4.0827767774999995 1
    4.0827767774999995 4.0827767774999995 1.3609255925 1
    2.721851185 0.0 2.721851185 1
    2.721851185 2.721851185 0.0 1
%endblock AtomicCoordinatesAndAtomicSpecies
%block DM.InitSpin
%endblock DM.InitSpin

DM.UseSaveDM	True
SaveRho	True
